s td 136 8 164
b 1 31 34 36
b 2 32 33 35
b 3 33 35 57
b 4 34 36 58
b 5 35 57 131
b 6 36 58 132
b 7 37 40 42
b 8 38 39 41
b 9 39 41 77
b 10 40 42 78
b 11 41 77 107
b 12 42 78 108
b 13 103 106 108
b 14 104 105 107
b 15 105 107 143
b 16 106 108 144
b 17 77 107 143
b 18 78 108 144
b 19 129 132 134
b 20 130 131 133
b 21 57 131 133
b 22 58 132 134
b 23 57 87 133
b 24 58 88 134
b 25 1 4 5 10 17 115 116 151
b 26 2 4 5 10 151
b 27 2 4 7 151
b 28 1 4 5 17 115 116 151 152
b 29 1 4 5 9 17 152
b 30 1 3 5 9 152
b 31 1 3 8 152
b 32 1 4 5 92 115 116 151 152
b 33 1 4 6 92
b 34 5 59 92 115 116 150 151 152
b 35 5 59 85 86 92 150
b 36 59 60 85 86 92 150
b 37 54 56 59 60 85 86 92
b 38 54 56 60 85 86 90 92
b 39 53 54 56 60 86 90 92
b 40 53 56 58 86 90 92
b 41 58 86 88 90 92
b 42 83 88 90 92
b 43 53 54 62 90
b 44 54 56 60 84 85 86 92
b 45 54 56 60 61 84 85 86
b 46 54 60 61 84 85 87
b 47 54 57 60 61 87
b 48 55 57 60 61
b 49 61 84 86 89
b 50 5 85 86 91
b 51 59 115 116 149 150 151 152
b 52 116 149 150 151 152 154
b 53 145 150 152 154
b 54 146 149 151 154
b 55 115 148 149 150 151 152
b 56 115 147 148 149 152
b 57 115 147 148 153
b 58 10 17 97 98 113 114 115 116
b 59 10 16 17 97 98 113 114
b 60 10 13 16 17 97 113 114
b 61 10 13 16 17 20 97 114
b 62 10 11 13 16 20
b 63 10 11 13 18
b 64 13 15 17 20 97
b 65 12 15 17 20
b 66 13 16 17 19 113
b 67 14 16 17 19
b 68 97 98 113 114 115 116 125 126
b 69 49 50 97 98 123 124 125 126
b 70 49 50 123 124 125 126 161 162
b 71 29 30 49 50 159 160 161 162
b 72 29 30 71 72 159 160 161 162
b 73 27 28 29 30 69 71 72 80
b 74 22 26 27 28 29 30 69 80
b 75 21 26 28 30
b 76 22 26 28 29 69 80 139
b 77 22 25 28 29 139
b 78 23 25 28 29
b 79 26 69 80 135 138 139
b 80 69 79 80 135 138 139
b 81 73 75 79 80 135 138 139
b 82 73 75 79 135 138 139 142
b 83 73 74 75 79 138 139 142
b 84 74 75 137 138 139 142
b 85 74 75 77 137 138
b 86 77 137 138 143
b 87 73 74 82 142
b 88 73 75 79 135 138 139 144
b 89 73 75 76 79 138 139 144
b 90 73 76 78 144
b 91 75 76 136 138 139 144
b 92 75 76 136 138 141
b 93 75 76 81 141
b 94 26 135 138 140
b 95 24 26 27 29
b 96 27 28 69 70 71 72 80
b 97 28 66 69 70 71 72
b 98 28 63 66 70 72
b 99 28 63 66 68
b 100 27 64 69 70 71 72
b 101 27 64 65 70 71
b 102 27 64 65 67
b 103 72 155 159 160 161 162
b 104 72 155 159 161 164
b 105 156 159 161 164
b 106 71 157 159 160 161 162
b 107 71 157 160 161 163
b 108 158 160 161 163
b 109 29 30 48 49 50 159 160
b 110 29 30 47 48 49 50 159
b 111 30 43 47 48 49 50
b 112 30 43 44 47 49
b 113 30 43 44 52
b 114 29 45 47 48 49 50
b 115 29 45 46 48 49
b 116 29 45 46 51
b 117 119 123 124 125 126 162
b 118 119 123 125 128 162
b 119 120 123 125 128
b 120 122 123 124 125 126 161
b 121 122 123 126 127 161
b 122 121 123 126 127
b 123 49 50 97 98 102 123 124
b 124 49 50 97 98 101 102 123
b 125 50 97 98 100 101 102
b 126 93 98 100 102
b 127 95 97 100 101
b 128 49 94 97 98 101 102
b 129 49 94 96 98 101
b 130 49 94 96 99
b 131 110 113 114 115 116 126
b 132 109 110 114 116 126
b 133 109 110 118 126
b 134 113 114 115 116 117 125
b 135 111 113 116 117
b 136 112 114 115 117
1 4
2 3
3 5
4 6
5 21
6 22
7 10
8 9
9 11
10 12
11 17
12 18
13 16
14 15
15 17
16 18
17 86
18 90
19 22
20 21
21 23
22 24
23 47
24 41
25 26
25 28
25 58
26 27
28 29
28 32
29 30
30 31
32 33
32 34
34 35
34 51
35 36
35 50
36 37
37 38
37 44
38 39
39 40
39 43
40 41
41 42
44 45
45 46
45 49
46 47
47 48
51 52
51 55
52 53
52 54
55 56
56 57
58 59
58 68
59 60
60 61
60 66
61 62
61 64
62 63
64 65
66 67
68 69
68 131
68 134
69 70
69 123
70 71
70 117
70 120
71 72
71 109
72 73
72 103
72 106
73 74
73 96
74 75
74 76
74 95
76 77
76 79
77 78
79 80
79 94
80 81
81 82
81 88
82 83
83 84
83 87
84 85
85 86
88 89
89 90
89 91
91 92
92 93
96 97
96 100
97 98
98 99
100 101
101 102
103 104
104 105
106 107
107 108
109 110
110 111
110 114
111 112
112 113
114 115
115 116
117 118
118 119
120 121
121 122
123 124
124 125
124 128
125 126
125 127
128 129
129 130
131 132
132 133
134 135
134 136
